gen cost
0 1499
1 1425
2 1396
3 1396
4 1396
5 1386
6 1386
7 1386
8 1380
9 1367
10 1367
11 1367
12 1367
13 1367
14 1367
15 1353
16 1353
17 1346
18 1346
19 1346
20 1346
21 1346
22 1346
23 1346
24 1346
25 1346
26 1346
27 1346
28 1346
29 1346
30 1346
31 1346
32 1346
33 1346
34 1346
35 1346
36 1346
37 1346
38 1346
39 1346
40 1346
41 1346
42 1346
43 1346
44 1346
45 1346
46 1346
47 1346
48 1346
49 1346
